NAME : ManP-10-0.6377245.tour
COMMENT : Length = 6377245
COMMENT : Found by LKH [Keld Helsgaun] Thu Nov 29 13:06:55 2018
TYPE : TOUR
DIMENSION : 15
TOUR_SECTION
1
10
5
7
9
8
11
2
12
14
6
3
4
13
15
-1
EOF
